c FILE: RandReg_N_50_D_4_s_0.col
p edge 50 100
e 1 17
e 1 20
e 1 28
e 1 44
e 2 5
e 2 14
e 2 16
e 2 45
e 3 16
e 3 32
e 3 34
e 3 40
e 4 11
e 4 23
e 4 43
e 4 44
e 5 20
e 5 26
e 5 28
e 6 12
e 6 22
e 6 26
e 6 30
e 7 10
e 7 13
e 7 23
e 7 28
e 8 31
e 8 35
e 8 41
e 8 45
e 9 23
e 9 33
e 9 36
e 9 37
e 10 17
e 10 33
e 10 34
e 11 33
e 11 40
e 11 42
e 12 24
e 12 34
e 12 43
e 13 29
e 13 42
e 13 50
e 14 33
e 14 39
e 14 50
e 15 16
e 15 39
e 15 45
e 15 50
e 16 42
e 17 36
e 17 46
e 18 21
e 18 22
e 18 30
e 18 38
e 19 26
e 19 29
e 19 34
e 19 36
e 20 37
e 20 47
e 21 31
e 21 32
e 21 43
e 22 30
e 22 48
e 23 49
e 24 29
e 24 41
e 24 48
e 25 32
e 25 36
e 25 46
e 25 49
e 26 29
e 27 32
e 27 37
e 27 41
e 27 49
e 28 35
e 30 38
e 31 35
e 31 38
e 35 49
e 37 44
e 38 40
e 39 41
e 39 46
e 40 48
e 42 47
e 43 47
e 44 47
e 45 46
e 48 50
